NAME: ETSP
COMMENT: Generated by write_TSPLIB (R package TSP)
TYPE: TSP
DIMENSION: 20
EDGE_WEIGHT_TYPE: EUC_2D
NODE_COORD_SECTION
1 5.979141e+01 7.056561e+00
2 6.666218e+01 5.999232e+01
3 6.063212e+01 3.952689e+01
4 7.842374e+00 9.282350e+01
5 5.784788e+01 6.944424e+01
6 1.709094e+01 2.041082e+01
7 8.303612e+01 3.702298e+01
8 3.860205e+01 8.738912e+01
9 9.845300e+00 7.276371e+01
10 5.167664e+01 6.995990e+01
11 5.299833e+01 5.476526e+01
12 9.290967e+01 7.234645e+01
13 6.944014e+01 3.621077e+01
14 7.290485e+01 3.124792e+01
15 1.365944e+01 5.063409e+01
16 7.752417e+01 9.420120e+01
17 5.599163e+01 3.948834e+01
18 4.304431e+01 9.286441e+01
19 7.639810e+01 5.236870e+00
20 3.162238e+01 2.943529e+00
EOF
